# Objective value = -4.6475314285714285e+02
X02 25.5
X14 1.8214285714285715e+01
X23 475.92
X36 3.3994285714285718e+02
X39 0
X01 80
X03 54.5
X04 8.4800000000000011e+01
X06 1.8214285714285715e+01
X07 0
X08 0
X09 0
X15 0
X16 1.9307142857142860e+01
X10 0
X11 0
X12 0
X13 0
X22 500
X24 24.08
X25 0
X26 215
X28 0
X29 0
X30 0
X31 0
X38 0
X37 3.8394285714285718e+02
X32 0
X33 0
X34 0
X35 0
